proyfinal/src/viki/013/experimentInOfficeAgust.take6.output/866411a5-046d-40c2-8358-77db633c63df.als.out
Reading from standard input... Use '--help' for help.
============================[ Problem Statistics ]=============================
|                                                                             |
|  Number of variables:         87638                                         |
|  Number of clauses:          161767                                         |
|  Parse time:                   0.03 s                                       |
|                                                                             |
============================[ Search Statistics ]==============================
| Conflicts |          ORIGINAL         |          LEARNT          | Progress |
|           |    Vars  Clauses Literals |    Limit  Clauses Lit/Cl |          |
===============================================================================
|       100 |   63281   108378   270950 |    39738      100     11 | 27.793 % |
|       250 |   63281   108378   270950 |    43712      250     41 | 27.793 % |
|       475 |   63281   108378   270950 |    48083      475     78 | 27.793 % |
|       812 |   63281   108378   270950 |    52892      812     65 | 27.793 % |
|      1318 |   63281   108378   270950 |    58181     1318     82 | 27.793 % |
|      2077 |   63280   108334   270860 |    63999     2076     84 | 27.794 % |
|      3216 |   63260   108250   270667 |    70399     2416     87 | 27.817 % |
|      4924 |   63260   108250   270667 |    77439     4124     87 | 27.817 % |
|      7486 |   63260   108250   270667 |    85183     6686     89 | 27.817 % |
|     11330 |   63260   108250   270667 |    93701    10530    109 | 27.817 % |
|     17096 |   50672    71240   179454 |   103071    14848     96 | 42.180 % |
===============================================================================
restarts              : 63
conflicts             : 19024          (5744 /sec)
decisions             : 64694          (0.00 % random) (19535 /sec)
propagations          : 30388917       (9176162 /sec)
conflict literals     : 1792021        (54.49 % deleted)
Memory used           : 38.44 MB
CPU time              : 3.31172 s

INDETERMINATE
